WARNING: for repeatability, setting FPU to use double precision
============================[ Problem Statistics ]=============================
|                                                                             |
|  Number of variables:            50                                         |
|  Number of clauses:             218                                         |
|  Parse time:                   0.00 s                                       |
|                                                                             |
============================[ Search Statistics ]==============================
| Conflicts |          ORIGINAL         |          LEARNT          | Progress |
|           |    Vars  Clauses Literals |    Limit  Clauses Lit/Cl |          |
===============================================================================
===============================================================================
restarts              : 1
conflicts             : 38             (26629 /sec)
decisions             : 50             (0.00 % random) (35039 /sec)
propagations          : 641            (449194 /sec)
conflict literals     : 119            (22.22 % deleted)
Memory used           : 20.00 MB
CPU time              : 0.001427 s

SATISFIABLE
